(set-info :smt-lib-version 2.6)
(set-logic QF_NIA)
(set-info :source |
Generated by: Cristina Borralleras, Daniel Larraz, Albert Oliveras, Enric Rodriguez-Carbonell, Albert Rubio
Generated on: 2017-04-27
Generator: VeryMax
Application: Termination proving
Target solver: barcelogic
|)
(set-info :license "https://creativecommons.org/licenses/by/4.0/")
(set-info :category "industrial")
(set-info :status unknown)
(declare-fun Nl2arg11 () Int)
(declare-fun Nl2arg21 () Int)
(declare-fun Nl2arg31 () Int)
(declare-fun Nl2arg12 () Int)
(declare-fun Nl2arg22 () Int)
(declare-fun Nl2arg32 () Int)
(declare-fun Nl2arg13 () Int)
(declare-fun Nl2arg23 () Int)
(declare-fun Nl2arg33 () Int)
(declare-fun lam0n0 () Int)
(declare-fun lam0n1 () Int)
(declare-fun lam0n2 () Int)
(declare-fun lam0n3 () Int)
(declare-fun lam0n4 () Int)
(declare-fun lam0n5 () Int)
(declare-fun lam0n6 () Int)
(declare-fun lam0n8 () Int)
(declare-fun lam0n9 () Int)
(declare-fun lam0n10 () Int)
(declare-fun Nl2CT1 () Int)
(declare-fun Nl2CT2 () Int)
(declare-fun Nl2CT3 () Int)
(declare-fun lam0n7 () Int)
(declare-fun lam1n0 () Int)
(declare-fun lam1n1 () Int)
(declare-fun lam1n2 () Int)
(declare-fun lam1n3 () Int)
(declare-fun lam1n4 () Int)
(declare-fun lam1n5 () Int)
(declare-fun lam1n6 () Int)
(declare-fun lam1n8 () Int)
(declare-fun lam1n9 () Int)
(declare-fun lam1n10 () Int)
(declare-fun lam1n7 () Int)
(declare-fun lam2n0 () Int)
(declare-fun lam2n1 () Int)
(declare-fun lam2n2 () Int)
(declare-fun lam2n3 () Int)
(declare-fun lam2n4 () Int)
(declare-fun lam2n5 () Int)
(declare-fun lam2n6 () Int)
(declare-fun lam2n8 () Int)
(declare-fun lam2n9 () Int)
(declare-fun lam2n10 () Int)
(declare-fun lam2n7 () Int)
(declare-fun lam3n0 () Int)
(declare-fun lam3n1 () Int)
(declare-fun lam3n2 () Int)
(declare-fun lam3n3 () Int)
(declare-fun lam3n4 () Int)
(declare-fun lam3n5 () Int)
(declare-fun lam3n6 () Int)
(declare-fun lam3n8 () Int)
(declare-fun lam3n9 () Int)
(declare-fun lam3n10 () Int)
(declare-fun lam3n7 () Int)
(declare-fun lam4n0 () Int)
(declare-fun lam4n1 () Int)
(declare-fun lam4n2 () Int)
(declare-fun lam4n3 () Int)
(declare-fun lam4n4 () Int)
(declare-fun lam4n5 () Int)
(declare-fun lam4n6 () Int)
(declare-fun lam5n0 () Int)
(declare-fun lam5n1 () Int)
(declare-fun lam5n2 () Int)
(declare-fun lam5n3 () Int)
(declare-fun lam5n4 () Int)
(declare-fun lam5n5 () Int)
(declare-fun lam5n6 () Int)
(declare-fun lam6n0 () Int)
(declare-fun lam6n1 () Int)
(declare-fun lam6n2 () Int)
(declare-fun lam6n3 () Int)
(declare-fun lam6n4 () Int)
(declare-fun lam6n5 () Int)
(declare-fun lam6n6 () Int)
(declare-fun lam7n0 () Int)
(declare-fun lam7n1 () Int)
(declare-fun lam7n2 () Int)
(declare-fun lam7n3 () Int)
(declare-fun lam7n4 () Int)
(declare-fun lam7n5 () Int)
(declare-fun lam8n0 () Int)
(declare-fun lam8n1 () Int)
(declare-fun lam8n2 () Int)
(declare-fun lam8n3 () Int)
(declare-fun lam8n4 () Int)
(declare-fun lam8n5 () Int)
(declare-fun lam9n0 () Int)
(declare-fun lam9n1 () Int)
(declare-fun lam9n2 () Int)
(declare-fun lam9n3 () Int)
(declare-fun lam9n4 () Int)
(declare-fun lam9n5 () Int)
(declare-fun undef14 () Int)
(declare-fun undef3 () Int)
(declare-fun undef13 () Int)
(declare-fun undef1 () Int)
(declare-fun undef2 () Int)
(declare-fun undef5 () Int)
(declare-fun undef4 () Int)
(declare-fun lam13n0 () Int)
(declare-fun lam13n1 () Int)
(declare-fun lam13n2 () Int)
(declare-fun lam13n3 () Int)
(declare-fun lam13n4 () Int)
(declare-fun lam13n5 () Int)
(declare-fun lam13n6 () Int)
(declare-fun lam13n8 () Int)
(declare-fun lam13n9 () Int)
(declare-fun lam13n10 () Int)
(declare-fun RFN1_CT () Int)
(declare-fun RFN1_arg1 () Int)
(declare-fun RFN1_arg2 () Int)
(declare-fun RFN1_arg3 () Int)
(declare-fun lam13n7 () Int)
(declare-fun lam11n0 () Int)
(declare-fun lam11n1 () Int)
(declare-fun lam11n2 () Int)
(declare-fun lam11n3 () Int)
(declare-fun lam11n4 () Int)
(declare-fun lam11n5 () Int)
(declare-fun lam11n6 () Int)
(declare-fun lam11n8 () Int)
(declare-fun lam11n9 () Int)
(declare-fun lam11n10 () Int)
(declare-fun lam11n7 () Int)
(declare-fun lam12n0 () Int)
(declare-fun lam12n1 () Int)
(declare-fun lam12n2 () Int)
(declare-fun lam12n3 () Int)
(declare-fun lam12n4 () Int)
(declare-fun lam12n5 () Int)
(declare-fun lam12n6 () Int)
(declare-fun lam12n8 () Int)
(declare-fun lam12n9 () Int)
(declare-fun lam12n10 () Int)
(declare-fun lam12n7 () Int)
(declare-fun lam10n0 () Int)
(declare-fun lam10n1 () Int)
(declare-fun lam10n2 () Int)
(declare-fun lam10n3 () Int)
(declare-fun lam10n4 () Int)
(declare-fun lam10n5 () Int)
(declare-fun lam10n6 () Int)
(declare-fun lam10n8 () Int)
(declare-fun lam10n9 () Int)
(declare-fun lam10n10 () Int)
(declare-fun lam10n7 () Int)
(assert ( and ( <= ( - 1 ) Nl2arg11 ) ( <= Nl2arg11 1 ) ( <= ( - 1 ) Nl2arg21 ) ( <= Nl2arg21 1 ) ( <= ( - 1 ) Nl2arg31 ) ( <= Nl2arg31 1 ) ( <= ( - 1 ) Nl2arg12 ) ( <= Nl2arg12 1 ) ( <= ( - 1 ) Nl2arg22 ) ( <= Nl2arg22 1 ) ( <= ( - 1 ) Nl2arg32 ) ( <= Nl2arg32 1 ) ( <= ( - 1 ) Nl2arg13 ) ( <= Nl2arg13 1 ) ( <= ( - 1 ) Nl2arg23 ) ( <= Nl2arg23 1 ) ( <= ( - 1 ) Nl2arg33 ) ( <= Nl2arg33 1 ) ))
(assert ( or ( and ( >= lam0n0 0 ) ( >= lam0n1 0 ) ( >= lam0n2 0 ) ( >= lam0n3 0 ) ( >= lam0n4 0 ) ( >= lam0n5 0 ) ( >= lam0n6 0 ) ( >= lam0n8 0 ) ( >= lam0n9 0 ) ( >= lam0n10 0 ) ( > ( + ( * 1 lam0n1 ) ( * 1 lam0n2 ) ( * 1 lam0n3 ) ( * ( - 3 ) lam0n4 ) ( * ( - 3 ) lam0n5 ) ( * 4 lam0n6 ) ( * Nl2CT1 lam0n8 ) ( * Nl2CT2 lam0n9 ) ( * Nl2CT3 lam0n10 ) ( - 1 ) ) 0 ) ( = ( + ( * ( - 1 ) lam0n1 ) ( * ( - 1 ) lam0n4 ) ( * Nl2arg11 lam0n8 ) ( * Nl2arg12 lam0n9 ) ( * Nl2arg13 lam0n10 ) ) 0 ) ( = ( + ( * ( - 1 ) lam0n0 ) ( * ( - 1 ) lam0n2 ) ( * ( - 1 ) lam0n5 ) ( * Nl2arg21 lam0n8 ) ( * Nl2arg22 lam0n9 ) ( * Nl2arg23 lam0n10 ) ) 0 ) ( = ( + ( * 1 lam0n7 ) ( * Nl2arg31 lam0n8 ) ( * Nl2arg32 lam0n9 ) ( * Nl2arg33 lam0n10 ) ) 0 ) ( = ( + ( * 1 lam0n4 ) ( * 1 lam0n5 ) ( * ( - 1 ) lam0n6 ) ) 0 ) ( = ( + ( * 1 lam0n0 ) ( * ( - 1 ) lam0n3 ) ) 0 ) ) ( and ( >= lam1n0 0 ) ( >= lam1n1 0 ) ( >= lam1n2 0 ) ( >= lam1n3 0 ) ( >= lam1n4 0 ) ( >= lam1n5 0 ) ( >= lam1n6 0 ) ( >= lam1n8 0 ) ( >= lam1n9 0 ) ( >= lam1n10 0 ) ( > ( + ( * 1 lam1n1 ) ( * 1 lam1n2 ) ( * 1 lam1n3 ) ( * ( - 3 ) lam1n4 ) ( * ( - 3 ) lam1n5 ) ( * 4 lam1n6 ) ( * Nl2CT1 lam1n8 ) ( * Nl2CT2 lam1n9 ) ( * Nl2CT3 lam1n10 ) ( - 1 ( + ( + ( + Nl2CT1 ( * Nl2arg11 0 ) ) ( * Nl2arg21 0 ) ) ( * Nl2arg31 0 ) ) ) ) 0 ) ( = ( + ( * ( - 1 ) lam1n1 ) ( * ( - 1 ) lam1n4 ) ( * Nl2arg11 lam1n8 ) ( * Nl2arg12 lam1n9 ) ( * Nl2arg13 lam1n10 ) ) 0 ) ( = ( + ( * ( - 1 ) lam1n0 ) ( * ( - 1 ) lam1n2 ) ( * ( - 1 ) lam1n5 ) ( * Nl2arg21 lam1n8 ) ( * Nl2arg22 lam1n9 ) ( * Nl2arg23 lam1n10 ) ) 0 ) ( = ( + ( * 1 lam1n7 ) ( * Nl2arg31 lam1n8 ) ( * Nl2arg32 lam1n9 ) ( * Nl2arg33 lam1n10 ) ) 0 ) ( = ( + ( * 1 lam1n4 ) ( * 1 lam1n5 ) ( * ( - 1 ) lam1n6 ) ( - ( + 0 ( * Nl2arg11 1 ) ) ) ) 0 ) ( = ( + ( * 1 lam1n0 ) ( * ( - 1 ) lam1n3 ) ( - ( + 0 ( * Nl2arg21 1 ) ) ) ) 0 ) ) ))
(assert ( or ( and ( >= lam0n0 0 ) ( >= lam0n1 0 ) ( >= lam0n2 0 ) ( >= lam0n3 0 ) ( >= lam0n4 0 ) ( >= lam0n5 0 ) ( >= lam0n6 0 ) ( >= lam0n8 0 ) ( >= lam0n9 0 ) ( >= lam0n10 0 ) ( > ( + ( * 1 lam0n1 ) ( * 1 lam0n2 ) ( * 1 lam0n3 ) ( * ( - 3 ) lam0n4 ) ( * ( - 3 ) lam0n5 ) ( * 4 lam0n6 ) ( * Nl2CT1 lam0n8 ) ( * Nl2CT2 lam0n9 ) ( * Nl2CT3 lam0n10 ) ( - 1 ) ) 0 ) ( = ( + ( * ( - 1 ) lam0n1 ) ( * ( - 1 ) lam0n4 ) ( * Nl2arg11 lam0n8 ) ( * Nl2arg12 lam0n9 ) ( * Nl2arg13 lam0n10 ) ) 0 ) ( = ( + ( * ( - 1 ) lam0n0 ) ( * ( - 1 ) lam0n2 ) ( * ( - 1 ) lam0n5 ) ( * Nl2arg21 lam0n8 ) ( * Nl2arg22 lam0n9 ) ( * Nl2arg23 lam0n10 ) ) 0 ) ( = ( + ( * 1 lam0n7 ) ( * Nl2arg31 lam0n8 ) ( * Nl2arg32 lam0n9 ) ( * Nl2arg33 lam0n10 ) ) 0 ) ( = ( + ( * 1 lam0n4 ) ( * 1 lam0n5 ) ( * ( - 1 ) lam0n6 ) ) 0 ) ( = ( + ( * 1 lam0n0 ) ( * ( - 1 ) lam0n3 ) ) 0 ) ) ( and ( >= lam2n0 0 ) ( >= lam2n1 0 ) ( >= lam2n2 0 ) ( >= lam2n3 0 ) ( >= lam2n4 0 ) ( >= lam2n5 0 ) ( >= lam2n6 0 ) ( >= lam2n8 0 ) ( >= lam2n9 0 ) ( >= lam2n10 0 ) ( > ( + ( * 1 lam2n1 ) ( * 1 lam2n2 ) ( * 1 lam2n3 ) ( * ( - 3 ) lam2n4 ) ( * ( - 3 ) lam2n5 ) ( * 4 lam2n6 ) ( * Nl2CT1 lam2n8 ) ( * Nl2CT2 lam2n9 ) ( * Nl2CT3 lam2n10 ) ( - 1 ( + ( + ( + Nl2CT2 ( * Nl2arg12 0 ) ) ( * Nl2arg22 0 ) ) ( * Nl2arg32 0 ) ) ) ) 0 ) ( = ( + ( * ( - 1 ) lam2n1 ) ( * ( - 1 ) lam2n4 ) ( * Nl2arg11 lam2n8 ) ( * Nl2arg12 lam2n9 ) ( * Nl2arg13 lam2n10 ) ) 0 ) ( = ( + ( * ( - 1 ) lam2n0 ) ( * ( - 1 ) lam2n2 ) ( * ( - 1 ) lam2n5 ) ( * Nl2arg21 lam2n8 ) ( * Nl2arg22 lam2n9 ) ( * Nl2arg23 lam2n10 ) ) 0 ) ( = ( + ( * 1 lam2n7 ) ( * Nl2arg31 lam2n8 ) ( * Nl2arg32 lam2n9 ) ( * Nl2arg33 lam2n10 ) ) 0 ) ( = ( + ( * 1 lam2n4 ) ( * 1 lam2n5 ) ( * ( - 1 ) lam2n6 ) ( - ( + 0 ( * Nl2arg12 1 ) ) ) ) 0 ) ( = ( + ( * 1 lam2n0 ) ( * ( - 1 ) lam2n3 ) ( - ( + 0 ( * Nl2arg22 1 ) ) ) ) 0 ) ) ))
(assert ( or ( and ( >= lam0n0 0 ) ( >= lam0n1 0 ) ( >= lam0n2 0 ) ( >= lam0n3 0 ) ( >= lam0n4 0 ) ( >= lam0n5 0 ) ( >= lam0n6 0 ) ( >= lam0n8 0 ) ( >= lam0n9 0 ) ( >= lam0n10 0 ) ( > ( + ( * 1 lam0n1 ) ( * 1 lam0n2 ) ( * 1 lam0n3 ) ( * ( - 3 ) lam0n4 ) ( * ( - 3 ) lam0n5 ) ( * 4 lam0n6 ) ( * Nl2CT1 lam0n8 ) ( * Nl2CT2 lam0n9 ) ( * Nl2CT3 lam0n10 ) ( - 1 ) ) 0 ) ( = ( + ( * ( - 1 ) lam0n1 ) ( * ( - 1 ) lam0n4 ) ( * Nl2arg11 lam0n8 ) ( * Nl2arg12 lam0n9 ) ( * Nl2arg13 lam0n10 ) ) 0 ) ( = ( + ( * ( - 1 ) lam0n0 ) ( * ( - 1 ) lam0n2 ) ( * ( - 1 ) lam0n5 ) ( * Nl2arg21 lam0n8 ) ( * Nl2arg22 lam0n9 ) ( * Nl2arg23 lam0n10 ) ) 0 ) ( = ( + ( * 1 lam0n7 ) ( * Nl2arg31 lam0n8 ) ( * Nl2arg32 lam0n9 ) ( * Nl2arg33 lam0n10 ) ) 0 ) ( = ( + ( * 1 lam0n4 ) ( * 1 lam0n5 ) ( * ( - 1 ) lam0n6 ) ) 0 ) ( = ( + ( * 1 lam0n0 ) ( * ( - 1 ) lam0n3 ) ) 0 ) ) ( and ( >= lam3n0 0 ) ( >= lam3n1 0 ) ( >= lam3n2 0 ) ( >= lam3n3 0 ) ( >= lam3n4 0 ) ( >= lam3n5 0 ) ( >= lam3n6 0 ) ( >= lam3n8 0 ) ( >= lam3n9 0 ) ( >= lam3n10 0 ) ( > ( + ( * 1 lam3n1 ) ( * 1 lam3n2 ) ( * 1 lam3n3 ) ( * ( - 3 ) lam3n4 ) ( * ( - 3 ) lam3n5 ) ( * 4 lam3n6 ) ( * Nl2CT1 lam3n8 ) ( * Nl2CT2 lam3n9 ) ( * Nl2CT3 lam3n10 ) ( - 1 ( + ( + ( + Nl2CT3 ( * Nl2arg13 0 ) ) ( * Nl2arg23 0 ) ) ( * Nl2arg33 0 ) ) ) ) 0 ) ( = ( + ( * ( - 1 ) lam3n1 ) ( * ( - 1 ) lam3n4 ) ( * Nl2arg11 lam3n8 ) ( * Nl2arg12 lam3n9 ) ( * Nl2arg13 lam3n10 ) ) 0 ) ( = ( + ( * ( - 1 ) lam3n0 ) ( * ( - 1 ) lam3n2 ) ( * ( - 1 ) lam3n5 ) ( * Nl2arg21 lam3n8 ) ( * Nl2arg22 lam3n9 ) ( * Nl2arg23 lam3n10 ) ) 0 ) ( = ( + ( * 1 lam3n7 ) ( * Nl2arg31 lam3n8 ) ( * Nl2arg32 lam3n9 ) ( * Nl2arg33 lam3n10 ) ) 0 ) ( = ( + ( * 1 lam3n4 ) ( * 1 lam3n5 ) ( * ( - 1 ) lam3n6 ) ( - ( + 0 ( * Nl2arg13 1 ) ) ) ) 0 ) ( = ( + ( * 1 lam3n0 ) ( * ( - 1 ) lam3n3 ) ( - ( + 0 ( * Nl2arg23 1 ) ) ) ) 0 ) ) ))
(assert ( or ( and ( <= ( * ( - 1 ) undef14 ) 0 ) ( <= ( + 1 ( * ( - 1 ) undef3 ) ) 0 ) ( <= ( + 1 ( * ( - 1 ) undef13 ) ) 0 ) ( <= ( + ( - 1 ) undef1 ( * ( - 1 ) undef13 ) ) 0 ) ( <= ( + ( - 3 ) undef2 ( * ( - 1 ) undef13 ) ) 0 ) ( <= ( + 2 ( * ( - 1 ) undef1 ) ) 0 ) ( <= ( + 4 ( * ( - 1 ) undef2 ) ) 0 ) ( <= ( + ( + ( + ( + Nl2CT1 ( * Nl2arg11 0 ) ) ( * Nl2arg21 0 ) ) ( * Nl2arg31 0 ) ) ( * ( + 0 ( * Nl2arg11 1 ) ) undef1 ) ( * ( + 0 ( * Nl2arg21 1 ) ) undef2 ) ( * ( + 0 ( * Nl2arg31 1 ) ) undef3 ) ) 0 ) ( <= ( + ( + ( + ( + Nl2CT2 ( * Nl2arg12 0 ) ) ( * Nl2arg22 0 ) ) ( * Nl2arg32 0 ) ) ( * ( + 0 ( * Nl2arg12 1 ) ) undef1 ) ( * ( + 0 ( * Nl2arg22 1 ) ) undef2 ) ( * ( + 0 ( * Nl2arg32 1 ) ) undef3 ) ) 0 ) ( <= ( + ( + ( + ( + Nl2CT3 ( * Nl2arg13 0 ) ) ( * Nl2arg23 0 ) ) ( * Nl2arg33 0 ) ) ( * ( + 0 ( * Nl2arg13 1 ) ) undef1 ) ( * ( + 0 ( * Nl2arg23 1 ) ) undef2 ) ( * ( + 0 ( * Nl2arg33 1 ) ) undef3 ) ) 0 ) ( <= undef3 0 ) ) ( and ( <= ( * ( - 1 ) undef14 ) 0 ) ( <= ( + 1 ( * ( - 1 ) undef13 ) ) 0 ) ( <= ( + ( - 1 ) undef5 ( * ( - 1 ) undef13 ) ) 0 ) ( <= ( + ( - 3 ) undef4 ( * ( - 1 ) undef13 ) ) 0 ) ( <= ( + 2 ( * ( - 1 ) undef5 ) ) 0 ) ( <= ( + 4 ( * ( - 1 ) undef4 ) ) 0 ) ( <= ( + ( + ( + ( + Nl2CT1 ( * Nl2arg11 0 ) ) ( * Nl2arg21 0 ) ) ( * Nl2arg31 0 ) ) ( * ( + 0 ( * Nl2arg11 1 ) ) undef4 ) ( * ( + 0 ( * Nl2arg21 1 ) ) undef5 ) ) 0 ) ( <= ( + ( + ( + ( + Nl2CT2 ( * Nl2arg12 0 ) ) ( * Nl2arg22 0 ) ) ( * Nl2arg32 0 ) ) ( * ( + 0 ( * Nl2arg12 1 ) ) undef4 ) ( * ( + 0 ( * Nl2arg22 1 ) ) undef5 ) ) 0 ) ( <= ( + ( + ( + ( + Nl2CT3 ( * Nl2arg13 0 ) ) ( * Nl2arg23 0 ) ) ( * Nl2arg33 0 ) ) ( * ( + 0 ( * Nl2arg13 1 ) ) undef4 ) ( * ( + 0 ( * Nl2arg23 1 ) ) undef5 ) ) 0 ) ( <= 0 0 ) ) ))
(assert ( or ( and ( and ( >= lam13n0 0 ) ( >= lam13n1 0 ) ( >= lam13n2 0 ) ( >= lam13n3 0 ) ( >= lam13n4 0 ) ( >= lam13n5 0 ) ( >= lam13n6 0 ) ( >= lam13n8 0 ) ( >= lam13n9 0 ) ( >= lam13n10 0 ) ( > ( + ( * 1 lam13n1 ) ( * 1 lam13n2 ) ( * 1 lam13n3 ) ( * ( - 3 ) lam13n4 ) ( * ( - 3 ) lam13n5 ) ( * 4 lam13n6 ) ( * Nl2CT1 lam13n8 ) ( * Nl2CT2 lam13n9 ) ( * Nl2CT3 lam13n10 ) ( - 1 ( - ( + ( + ( + RFN1_CT ( * RFN1_arg1 0 ) ) ( * RFN1_arg2 0 ) ) ( * RFN1_arg3 0 ) ) RFN1_CT ) ) ) 0 ) ( = ( + ( * ( - 1 ) lam13n1 ) ( * ( - 1 ) lam13n4 ) ( * Nl2arg11 lam13n8 ) ( * Nl2arg12 lam13n9 ) ( * Nl2arg13 lam13n10 ) ( - ( - RFN1_arg1 ) ) ) 0 ) ( = ( + ( * ( - 1 ) lam13n0 ) ( * ( - 1 ) lam13n2 ) ( * ( - 1 ) lam13n5 ) ( * Nl2arg21 lam13n8 ) ( * Nl2arg22 lam13n9 ) ( * Nl2arg23 lam13n10 ) ( - ( - RFN1_arg2 ) ) ) 0 ) ( = ( + ( * 1 lam13n7 ) ( * Nl2arg31 lam13n8 ) ( * Nl2arg32 lam13n9 ) ( * Nl2arg33 lam13n10 ) ( - ( - RFN1_arg3 ) ) ) 0 ) ( = ( + ( * 1 lam13n4 ) ( * 1 lam13n5 ) ( * ( - 1 ) lam13n6 ) ( - ( + 0 ( * RFN1_arg1 1 ) ) ) ) 0 ) ( = ( + ( * 1 lam13n0 ) ( * ( - 1 ) lam13n3 ) ( - ( + 0 ( * RFN1_arg2 1 ) ) ) ) 0 ) ) ( and ( and ( >= lam11n0 0 ) ( >= lam11n1 0 ) ( >= lam11n2 0 ) ( >= lam11n3 0 ) ( >= lam11n4 0 ) ( >= lam11n5 0 ) ( >= lam11n6 0 ) ( >= lam11n8 0 ) ( >= lam11n9 0 ) ( >= lam11n10 0 ) ( > ( + ( * 1 lam11n1 ) ( * 1 lam11n2 ) ( * 1 lam11n3 ) ( * ( - 3 ) lam11n4 ) ( * ( - 3 ) lam11n5 ) ( * 4 lam11n6 ) ( * Nl2CT1 lam11n8 ) ( * Nl2CT2 lam11n9 ) ( * Nl2CT3 lam11n10 ) ( - 1 ( - RFN1_CT ) ) ) 0 ) ( = ( + ( * ( - 1 ) lam11n1 ) ( * ( - 1 ) lam11n4 ) ( * Nl2arg11 lam11n8 ) ( * Nl2arg12 lam11n9 ) ( * Nl2arg13 lam11n10 ) ( - ( - RFN1_arg1 ) ) ) 0 ) ( = ( + ( * ( - 1 ) lam11n0 ) ( * ( - 1 ) lam11n2 ) ( * ( - 1 ) lam11n5 ) ( * Nl2arg21 lam11n8 ) ( * Nl2arg22 lam11n9 ) ( * Nl2arg23 lam11n10 ) ( - ( - RFN1_arg2 ) ) ) 0 ) ( = ( + ( * 1 lam11n7 ) ( * Nl2arg31 lam11n8 ) ( * Nl2arg32 lam11n9 ) ( * Nl2arg33 lam11n10 ) ( - ( - RFN1_arg3 ) ) ) 0 ) ( = ( + ( * 1 lam11n4 ) ( * 1 lam11n5 ) ( * ( - 1 ) lam11n6 ) ) 0 ) ( = ( + ( * 1 lam11n0 ) ( * ( - 1 ) lam11n3 ) ) 0 ) ) ( and ( >= lam12n0 0 ) ( >= lam12n1 0 ) ( >= lam12n2 0 ) ( >= lam12n3 0 ) ( >= lam12n4 0 ) ( >= lam12n5 0 ) ( >= lam12n6 0 ) ( >= lam12n8 0 ) ( >= lam12n9 0 ) ( >= lam12n10 0 ) ( > ( + ( * 1 lam12n1 ) ( * 1 lam12n2 ) ( * 1 lam12n3 ) ( * ( - 3 ) lam12n4 ) ( * ( - 3 ) lam12n5 ) ( * 4 lam12n6 ) ( * Nl2CT1 lam12n8 ) ( * Nl2CT2 lam12n9 ) ( * Nl2CT3 lam12n10 ) ( - 1 ( + ( - ( + ( + ( + RFN1_CT ( * RFN1_arg1 0 ) ) ( * RFN1_arg2 0 ) ) ( * RFN1_arg3 0 ) ) RFN1_CT ) 1 ) ) ) 0 ) ( = ( + ( * ( - 1 ) lam12n1 ) ( * ( - 1 ) lam12n4 ) ( * Nl2arg11 lam12n8 ) ( * Nl2arg12 lam12n9 ) ( * Nl2arg13 lam12n10 ) ( - ( - RFN1_arg1 ) ) ) 0 ) ( = ( + ( * ( - 1 ) lam12n0 ) ( * ( - 1 ) lam12n2 ) ( * ( - 1 ) lam12n5 ) ( * Nl2arg21 lam12n8 ) ( * Nl2arg22 lam12n9 ) ( * Nl2arg23 lam12n10 ) ( - ( - RFN1_arg2 ) ) ) 0 ) ( = ( + ( * 1 lam12n7 ) ( * Nl2arg31 lam12n8 ) ( * Nl2arg32 lam12n9 ) ( * Nl2arg33 lam12n10 ) ( - ( - RFN1_arg3 ) ) ) 0 ) ( = ( + ( * 1 lam12n4 ) ( * 1 lam12n5 ) ( * ( - 1 ) lam12n6 ) ( - ( + 0 ( * RFN1_arg1 1 ) ) ) ) 0 ) ( = ( + ( * 1 lam12n0 ) ( * ( - 1 ) lam12n3 ) ( - ( + 0 ( * RFN1_arg2 1 ) ) ) ) 0 ) ) ) ) ( and ( >= lam10n0 0 ) ( >= lam10n1 0 ) ( >= lam10n2 0 ) ( >= lam10n3 0 ) ( >= lam10n4 0 ) ( >= lam10n5 0 ) ( >= lam10n6 0 ) ( >= lam10n8 0 ) ( >= lam10n9 0 ) ( >= lam10n10 0 ) ( > ( + ( * 1 lam10n1 ) ( * 1 lam10n2 ) ( * 1 lam10n3 ) ( * ( - 3 ) lam10n4 ) ( * ( - 3 ) lam10n5 ) ( * 4 lam10n6 ) ( * Nl2CT1 lam10n8 ) ( * Nl2CT2 lam10n9 ) ( * Nl2CT3 lam10n10 ) ( - 1 ) ) 0 ) ( = ( + ( * ( - 1 ) lam10n1 ) ( * ( - 1 ) lam10n4 ) ( * Nl2arg11 lam10n8 ) ( * Nl2arg12 lam10n9 ) ( * Nl2arg13 lam10n10 ) ) 0 ) ( = ( + ( * ( - 1 ) lam10n0 ) ( * ( - 1 ) lam10n2 ) ( * ( - 1 ) lam10n5 ) ( * Nl2arg21 lam10n8 ) ( * Nl2arg22 lam10n9 ) ( * Nl2arg23 lam10n10 ) ) 0 ) ( = ( + ( * 1 lam10n7 ) ( * Nl2arg31 lam10n8 ) ( * Nl2arg32 lam10n9 ) ( * Nl2arg33 lam10n10 ) ) 0 ) ( = ( + ( * 1 lam10n4 ) ( * 1 lam10n5 ) ( * ( - 1 ) lam10n6 ) ) 0 ) ( = ( + ( * 1 lam10n0 ) ( * ( - 1 ) lam10n3 ) ) 0 ) ) ))
(check-sat)
(exit)
